(set-logic QF_LRA)
(declare-fun X0 () Real )
(declare-fun Y0 () Real )
(declare-fun X1 () Real )
(declare-fun Y1 () Real )
(declare-fun X2 () Real )
(declare-fun Y2 () Real )
(declare-fun X3 () Real )
(declare-fun Y3 () Real )
(declare-fun X4 () Real )
(declare-fun Y4 () Real )
(declare-fun X5 () Real )
(declare-fun Y5 () Real )
(declare-fun X6 () Real )
(declare-fun Y6 () Real )
(declare-fun X7 () Real )
(declare-fun Y7 () Real )
(declare-fun X8 () Real )
(declare-fun Y8 () Real )
(declare-fun X9 () Real )
(declare-fun Y9 () Real )
(declare-fun X10 () Real )
(declare-fun Y10 () Real )
(declare-fun X11 () Real )
(declare-fun Y11 () Real )
(declare-fun X12 () Real )
(declare-fun Y12 () Real )
(declare-fun X13 () Real )
(declare-fun Y13 () Real )
(declare-fun X14 () Real )
(declare-fun Y14 () Real )
(declare-fun X15 () Real )
(declare-fun Y15 () Real )
(declare-fun X16 () Real )
(declare-fun Y16 () Real )
(declare-fun X17 () Real )
(declare-fun Y17 () Real )
(declare-fun Z () Real )
(declare-fun k () Real )
(assert (let
(( $goal (>= Z k) ))
(let
((
$phi ( and 
( or ( <= ( + X0 83 ) X1 )  ( <= ( + X1 58 ) X0 )  ( <= ( + Y0 96 ) Y1 )  ( <= ( + Y1 72 ) Y0 )  )
( or ( <= ( + X0 83 ) X2 )  ( <= ( + X2 55 ) X0 )  ( <= ( + Y0 96 ) Y2 )  ( <= ( + Y2 76 ) Y0 )  )
( or ( <= ( + X0 83 ) X3 )  ( <= ( + X3 38 ) X0 )  ( <= ( + Y0 96 ) Y3 )  ( <= ( + Y3 60 ) Y0 )  )
( or ( <= ( + X0 83 ) X4 )  ( <= ( + X4 8 ) X0 )  ( <= ( + Y0 96 ) Y4 )  ( <= ( + Y4 12 ) Y0 )  )
( or ( <= ( + X0 83 ) X5 )  ( <= ( + X5 44 ) X0 )  ( <= ( + Y0 96 ) Y5 )  ( <= ( + Y5 46 ) Y0 )  )
( or ( <= ( + X0 83 ) X6 )  ( <= ( + X6 80 ) X0 )  ( <= ( + Y0 96 ) Y6 )  ( <= ( + Y6 28 ) Y0 )  )
( or ( <= ( + X0 83 ) X7 )  ( <= ( + X7 55 ) X0 )  ( <= ( + Y0 96 ) Y7 )  ( <= ( + Y7 4 ) Y0 )  )
( or ( <= ( + X0 83 ) X8 )  ( <= ( + X8 69 ) X0 )  ( <= ( + Y0 96 ) Y8 )  ( <= ( + Y8 89 ) Y0 )  )
( or ( <= ( + X0 83 ) X9 )  ( <= ( + X9 30 ) X0 )  ( <= ( + Y0 96 ) Y9 )  ( <= ( + Y9 98 ) Y0 )  )
( or ( <= ( + X0 83 ) X10 )  ( <= ( + X10 12 ) X0 )  ( <= ( + Y0 96 ) Y10 )  ( <= ( + Y10 37 ) Y0 )  )
( or ( <= ( + X0 83 ) X11 )  ( <= ( + X11 70 ) X0 )  ( <= ( + Y0 96 ) Y11 )  ( <= ( + Y11 1 ) Y0 )  )
( or ( <= ( + X0 83 ) X12 )  ( <= ( + X12 78 ) X0 )  ( <= ( + Y0 96 ) Y12 )  ( <= ( + Y12 17 ) Y0 )  )
( or ( <= ( + X0 83 ) X13 )  ( <= ( + X13 60 ) X0 )  ( <= ( + Y0 96 ) Y13 )  ( <= ( + Y13 71 ) Y0 )  )
( or ( <= ( + X0 83 ) X14 )  ( <= ( + X14 4 ) X0 )  ( <= ( + Y0 96 ) Y14 )  ( <= ( + Y14 10 ) Y0 )  )
( or ( <= ( + X0 83 ) X15 )  ( <= ( + X15 7 ) X0 )  ( <= ( + Y0 96 ) Y15 )  ( <= ( + Y15 71 ) Y0 )  )
( or ( <= ( + X0 83 ) X16 )  ( <= ( + X16 81 ) X0 )  ( <= ( + Y0 96 ) Y16 )  ( <= ( + Y16 8 ) Y0 )  )
( or ( <= ( + X0 83 ) X17 )  ( <= ( + X17 95 ) X0 )  ( <= ( + Y0 96 ) Y17 )  ( <= ( + Y17 17 ) Y0 )  )
( or ( <= ( + X1 58 ) X2 )  ( <= ( + X2 55 ) X1 )  ( <= ( + Y1 72 ) Y2 )  ( <= ( + Y2 76 ) Y1 )  )
( or ( <= ( + X1 58 ) X3 )  ( <= ( + X3 38 ) X1 )  ( <= ( + Y1 72 ) Y3 )  ( <= ( + Y3 60 ) Y1 )  )
( or ( <= ( + X1 58 ) X4 )  ( <= ( + X4 8 ) X1 )  ( <= ( + Y1 72 ) Y4 )  ( <= ( + Y4 12 ) Y1 )  )
( or ( <= ( + X1 58 ) X5 )  ( <= ( + X5 44 ) X1 )  ( <= ( + Y1 72 ) Y5 )  ( <= ( + Y5 46 ) Y1 )  )
( or ( <= ( + X1 58 ) X6 )  ( <= ( + X6 80 ) X1 )  ( <= ( + Y1 72 ) Y6 )  ( <= ( + Y6 28 ) Y1 )  )
( or ( <= ( + X1 58 ) X7 )  ( <= ( + X7 55 ) X1 )  ( <= ( + Y1 72 ) Y7 )  ( <= ( + Y7 4 ) Y1 )  )
( or ( <= ( + X1 58 ) X8 )  ( <= ( + X8 69 ) X1 )  ( <= ( + Y1 72 ) Y8 )  ( <= ( + Y8 89 ) Y1 )  )
( or ( <= ( + X1 58 ) X9 )  ( <= ( + X9 30 ) X1 )  ( <= ( + Y1 72 ) Y9 )  ( <= ( + Y9 98 ) Y1 )  )
( or ( <= ( + X1 58 ) X10 )  ( <= ( + X10 12 ) X1 )  ( <= ( + Y1 72 ) Y10 )  ( <= ( + Y10 37 ) Y1 )  )
( or ( <= ( + X1 58 ) X11 )  ( <= ( + X11 70 ) X1 )  ( <= ( + Y1 72 ) Y11 )  ( <= ( + Y11 1 ) Y1 )  )
( or ( <= ( + X1 58 ) X12 )  ( <= ( + X12 78 ) X1 )  ( <= ( + Y1 72 ) Y12 )  ( <= ( + Y12 17 ) Y1 )  )
( or ( <= ( + X1 58 ) X13 )  ( <= ( + X13 60 ) X1 )  ( <= ( + Y1 72 ) Y13 )  ( <= ( + Y13 71 ) Y1 )  )
( or ( <= ( + X1 58 ) X14 )  ( <= ( + X14 4 ) X1 )  ( <= ( + Y1 72 ) Y14 )  ( <= ( + Y14 10 ) Y1 )  )
( or ( <= ( + X1 58 ) X15 )  ( <= ( + X15 7 ) X1 )  ( <= ( + Y1 72 ) Y15 )  ( <= ( + Y15 71 ) Y1 )  )
( or ( <= ( + X1 58 ) X16 )  ( <= ( + X16 81 ) X1 )  ( <= ( + Y1 72 ) Y16 )  ( <= ( + Y16 8 ) Y1 )  )
( or ( <= ( + X1 58 ) X17 )  ( <= ( + X17 95 ) X1 )  ( <= ( + Y1 72 ) Y17 )  ( <= ( + Y17 17 ) Y1 )  )
( or ( <= ( + X2 55 ) X3 )  ( <= ( + X3 38 ) X2 )  ( <= ( + Y2 76 ) Y3 )  ( <= ( + Y3 60 ) Y2 )  )
( or ( <= ( + X2 55 ) X4 )  ( <= ( + X4 8 ) X2 )  ( <= ( + Y2 76 ) Y4 )  ( <= ( + Y4 12 ) Y2 )  )
( or ( <= ( + X2 55 ) X5 )  ( <= ( + X5 44 ) X2 )  ( <= ( + Y2 76 ) Y5 )  ( <= ( + Y5 46 ) Y2 )  )
( or ( <= ( + X2 55 ) X6 )  ( <= ( + X6 80 ) X2 )  ( <= ( + Y2 76 ) Y6 )  ( <= ( + Y6 28 ) Y2 )  )
( or ( <= ( + X2 55 ) X7 )  ( <= ( + X7 55 ) X2 )  ( <= ( + Y2 76 ) Y7 )  ( <= ( + Y7 4 ) Y2 )  )
( or ( <= ( + X2 55 ) X8 )  ( <= ( + X8 69 ) X2 )  ( <= ( + Y2 76 ) Y8 )  ( <= ( + Y8 89 ) Y2 )  )
( or ( <= ( + X2 55 ) X9 )  ( <= ( + X9 30 ) X2 )  ( <= ( + Y2 76 ) Y9 )  ( <= ( + Y9 98 ) Y2 )  )
( or ( <= ( + X2 55 ) X10 )  ( <= ( + X10 12 ) X2 )  ( <= ( + Y2 76 ) Y10 )  ( <= ( + Y10 37 ) Y2 )  )
( or ( <= ( + X2 55 ) X11 )  ( <= ( + X11 70 ) X2 )  ( <= ( + Y2 76 ) Y11 )  ( <= ( + Y11 1 ) Y2 )  )
( or ( <= ( + X2 55 ) X12 )  ( <= ( + X12 78 ) X2 )  ( <= ( + Y2 76 ) Y12 )  ( <= ( + Y12 17 ) Y2 )  )
( or ( <= ( + X2 55 ) X13 )  ( <= ( + X13 60 ) X2 )  ( <= ( + Y2 76 ) Y13 )  ( <= ( + Y13 71 ) Y2 )  )
( or ( <= ( + X2 55 ) X14 )  ( <= ( + X14 4 ) X2 )  ( <= ( + Y2 76 ) Y14 )  ( <= ( + Y14 10 ) Y2 )  )
( or ( <= ( + X2 55 ) X15 )  ( <= ( + X15 7 ) X2 )  ( <= ( + Y2 76 ) Y15 )  ( <= ( + Y15 71 ) Y2 )  )
( or ( <= ( + X2 55 ) X16 )  ( <= ( + X16 81 ) X2 )  ( <= ( + Y2 76 ) Y16 )  ( <= ( + Y16 8 ) Y2 )  )
( or ( <= ( + X2 55 ) X17 )  ( <= ( + X17 95 ) X2 )  ( <= ( + Y2 76 ) Y17 )  ( <= ( + Y17 17 ) Y2 )  )
( or ( <= ( + X3 38 ) X4 )  ( <= ( + X4 8 ) X3 )  ( <= ( + Y3 60 ) Y4 )  ( <= ( + Y4 12 ) Y3 )  )
( or ( <= ( + X3 38 ) X5 )  ( <= ( + X5 44 ) X3 )  ( <= ( + Y3 60 ) Y5 )  ( <= ( + Y5 46 ) Y3 )  )
( or ( <= ( + X3 38 ) X6 )  ( <= ( + X6 80 ) X3 )  ( <= ( + Y3 60 ) Y6 )  ( <= ( + Y6 28 ) Y3 )  )
( or ( <= ( + X3 38 ) X7 )  ( <= ( + X7 55 ) X3 )  ( <= ( + Y3 60 ) Y7 )  ( <= ( + Y7 4 ) Y3 )  )
( or ( <= ( + X3 38 ) X8 )  ( <= ( + X8 69 ) X3 )  ( <= ( + Y3 60 ) Y8 )  ( <= ( + Y8 89 ) Y3 )  )
( or ( <= ( + X3 38 ) X9 )  ( <= ( + X9 30 ) X3 )  ( <= ( + Y3 60 ) Y9 )  ( <= ( + Y9 98 ) Y3 )  )
( or ( <= ( + X3 38 ) X10 )  ( <= ( + X10 12 ) X3 )  ( <= ( + Y3 60 ) Y10 )  ( <= ( + Y10 37 ) Y3 )  )
( or ( <= ( + X3 38 ) X11 )  ( <= ( + X11 70 ) X3 )  ( <= ( + Y3 60 ) Y11 )  ( <= ( + Y11 1 ) Y3 )  )
( or ( <= ( + X3 38 ) X12 )  ( <= ( + X12 78 ) X3 )  ( <= ( + Y3 60 ) Y12 )  ( <= ( + Y12 17 ) Y3 )  )
( or ( <= ( + X3 38 ) X13 )  ( <= ( + X13 60 ) X3 )  ( <= ( + Y3 60 ) Y13 )  ( <= ( + Y13 71 ) Y3 )  )
( or ( <= ( + X3 38 ) X14 )  ( <= ( + X14 4 ) X3 )  ( <= ( + Y3 60 ) Y14 )  ( <= ( + Y14 10 ) Y3 )  )
( or ( <= ( + X3 38 ) X15 )  ( <= ( + X15 7 ) X3 )  ( <= ( + Y3 60 ) Y15 )  ( <= ( + Y15 71 ) Y3 )  )
( or ( <= ( + X3 38 ) X16 )  ( <= ( + X16 81 ) X3 )  ( <= ( + Y3 60 ) Y16 )  ( <= ( + Y16 8 ) Y3 )  )
( or ( <= ( + X3 38 ) X17 )  ( <= ( + X17 95 ) X3 )  ( <= ( + Y3 60 ) Y17 )  ( <= ( + Y17 17 ) Y3 )  )
( or ( <= ( + X4 8 ) X5 )  ( <= ( + X5 44 ) X4 )  ( <= ( + Y4 12 ) Y5 )  ( <= ( + Y5 46 ) Y4 )  )
( or ( <= ( + X4 8 ) X6 )  ( <= ( + X6 80 ) X4 )  ( <= ( + Y4 12 ) Y6 )  ( <= ( + Y6 28 ) Y4 )  )
( or ( <= ( + X4 8 ) X7 )  ( <= ( + X7 55 ) X4 )  ( <= ( + Y4 12 ) Y7 )  ( <= ( + Y7 4 ) Y4 )  )
( or ( <= ( + X4 8 ) X8 )  ( <= ( + X8 69 ) X4 )  ( <= ( + Y4 12 ) Y8 )  ( <= ( + Y8 89 ) Y4 )  )
( or ( <= ( + X4 8 ) X9 )  ( <= ( + X9 30 ) X4 )  ( <= ( + Y4 12 ) Y9 )  ( <= ( + Y9 98 ) Y4 )  )
( or ( <= ( + X4 8 ) X10 )  ( <= ( + X10 12 ) X4 )  ( <= ( + Y4 12 ) Y10 )  ( <= ( + Y10 37 ) Y4 )  )
( or ( <= ( + X4 8 ) X11 )  ( <= ( + X11 70 ) X4 )  ( <= ( + Y4 12 ) Y11 )  ( <= ( + Y11 1 ) Y4 )  )
( or ( <= ( + X4 8 ) X12 )  ( <= ( + X12 78 ) X4 )  ( <= ( + Y4 12 ) Y12 )  ( <= ( + Y12 17 ) Y4 )  )
( or ( <= ( + X4 8 ) X13 )  ( <= ( + X13 60 ) X4 )  ( <= ( + Y4 12 ) Y13 )  ( <= ( + Y13 71 ) Y4 )  )
( or ( <= ( + X4 8 ) X14 )  ( <= ( + X14 4 ) X4 )  ( <= ( + Y4 12 ) Y14 )  ( <= ( + Y14 10 ) Y4 )  )
( or ( <= ( + X4 8 ) X15 )  ( <= ( + X15 7 ) X4 )  ( <= ( + Y4 12 ) Y15 )  ( <= ( + Y15 71 ) Y4 )  )
( or ( <= ( + X4 8 ) X16 )  ( <= ( + X16 81 ) X4 )  ( <= ( + Y4 12 ) Y16 )  ( <= ( + Y16 8 ) Y4 )  )
( or ( <= ( + X4 8 ) X17 )  ( <= ( + X17 95 ) X4 )  ( <= ( + Y4 12 ) Y17 )  ( <= ( + Y17 17 ) Y4 )  )
( or ( <= ( + X5 44 ) X6 )  ( <= ( + X6 80 ) X5 )  ( <= ( + Y5 46 ) Y6 )  ( <= ( + Y6 28 ) Y5 )  )
( or ( <= ( + X5 44 ) X7 )  ( <= ( + X7 55 ) X5 )  ( <= ( + Y5 46 ) Y7 )  ( <= ( + Y7 4 ) Y5 )  )
( or ( <= ( + X5 44 ) X8 )  ( <= ( + X8 69 ) X5 )  ( <= ( + Y5 46 ) Y8 )  ( <= ( + Y8 89 ) Y5 )  )
( or ( <= ( + X5 44 ) X9 )  ( <= ( + X9 30 ) X5 )  ( <= ( + Y5 46 ) Y9 )  ( <= ( + Y9 98 ) Y5 )  )
( or ( <= ( + X5 44 ) X10 )  ( <= ( + X10 12 ) X5 )  ( <= ( + Y5 46 ) Y10 )  ( <= ( + Y10 37 ) Y5 )  )
( or ( <= ( + X5 44 ) X11 )  ( <= ( + X11 70 ) X5 )  ( <= ( + Y5 46 ) Y11 )  ( <= ( + Y11 1 ) Y5 )  )
( or ( <= ( + X5 44 ) X12 )  ( <= ( + X12 78 ) X5 )  ( <= ( + Y5 46 ) Y12 )  ( <= ( + Y12 17 ) Y5 )  )
( or ( <= ( + X5 44 ) X13 )  ( <= ( + X13 60 ) X5 )  ( <= ( + Y5 46 ) Y13 )  ( <= ( + Y13 71 ) Y5 )  )
( or ( <= ( + X5 44 ) X14 )  ( <= ( + X14 4 ) X5 )  ( <= ( + Y5 46 ) Y14 )  ( <= ( + Y14 10 ) Y5 )  )
( or ( <= ( + X5 44 ) X15 )  ( <= ( + X15 7 ) X5 )  ( <= ( + Y5 46 ) Y15 )  ( <= ( + Y15 71 ) Y5 )  )
( or ( <= ( + X5 44 ) X16 )  ( <= ( + X16 81 ) X5 )  ( <= ( + Y5 46 ) Y16 )  ( <= ( + Y16 8 ) Y5 )  )
( or ( <= ( + X5 44 ) X17 )  ( <= ( + X17 95 ) X5 )  ( <= ( + Y5 46 ) Y17 )  ( <= ( + Y17 17 ) Y5 )  )
( or ( <= ( + X6 80 ) X7 )  ( <= ( + X7 55 ) X6 )  ( <= ( + Y6 28 ) Y7 )  ( <= ( + Y7 4 ) Y6 )  )
( or ( <= ( + X6 80 ) X8 )  ( <= ( + X8 69 ) X6 )  ( <= ( + Y6 28 ) Y8 )  ( <= ( + Y8 89 ) Y6 )  )
( or ( <= ( + X6 80 ) X9 )  ( <= ( + X9 30 ) X6 )  ( <= ( + Y6 28 ) Y9 )  ( <= ( + Y9 98 ) Y6 )  )
( or ( <= ( + X6 80 ) X10 )  ( <= ( + X10 12 ) X6 )  ( <= ( + Y6 28 ) Y10 )  ( <= ( + Y10 37 ) Y6 )  )
( or ( <= ( + X6 80 ) X11 )  ( <= ( + X11 70 ) X6 )  ( <= ( + Y6 28 ) Y11 )  ( <= ( + Y11 1 ) Y6 )  )
( or ( <= ( + X6 80 ) X12 )  ( <= ( + X12 78 ) X6 )  ( <= ( + Y6 28 ) Y12 )  ( <= ( + Y12 17 ) Y6 )  )
( or ( <= ( + X6 80 ) X13 )  ( <= ( + X13 60 ) X6 )  ( <= ( + Y6 28 ) Y13 )  ( <= ( + Y13 71 ) Y6 )  )
( or ( <= ( + X6 80 ) X14 )  ( <= ( + X14 4 ) X6 )  ( <= ( + Y6 28 ) Y14 )  ( <= ( + Y14 10 ) Y6 )  )
( or ( <= ( + X6 80 ) X15 )  ( <= ( + X15 7 ) X6 )  ( <= ( + Y6 28 ) Y15 )  ( <= ( + Y15 71 ) Y6 )  )
( or ( <= ( + X6 80 ) X16 )  ( <= ( + X16 81 ) X6 )  ( <= ( + Y6 28 ) Y16 )  ( <= ( + Y16 8 ) Y6 )  )
( or ( <= ( + X6 80 ) X17 )  ( <= ( + X17 95 ) X6 )  ( <= ( + Y6 28 ) Y17 )  ( <= ( + Y17 17 ) Y6 )  )
( or ( <= ( + X7 55 ) X8 )  ( <= ( + X8 69 ) X7 )  ( <= ( + Y7 4 ) Y8 )  ( <= ( + Y8 89 ) Y7 )  )
( or ( <= ( + X7 55 ) X9 )  ( <= ( + X9 30 ) X7 )  ( <= ( + Y7 4 ) Y9 )  ( <= ( + Y9 98 ) Y7 )  )
( or ( <= ( + X7 55 ) X10 )  ( <= ( + X10 12 ) X7 )  ( <= ( + Y7 4 ) Y10 )  ( <= ( + Y10 37 ) Y7 )  )
( or ( <= ( + X7 55 ) X11 )  ( <= ( + X11 70 ) X7 )  ( <= ( + Y7 4 ) Y11 )  ( <= ( + Y11 1 ) Y7 )  )
( or ( <= ( + X7 55 ) X12 )  ( <= ( + X12 78 ) X7 )  ( <= ( + Y7 4 ) Y12 )  ( <= ( + Y12 17 ) Y7 )  )
( or ( <= ( + X7 55 ) X13 )  ( <= ( + X13 60 ) X7 )  ( <= ( + Y7 4 ) Y13 )  ( <= ( + Y13 71 ) Y7 )  )
( or ( <= ( + X7 55 ) X14 )  ( <= ( + X14 4 ) X7 )  ( <= ( + Y7 4 ) Y14 )  ( <= ( + Y14 10 ) Y7 )  )
( or ( <= ( + X7 55 ) X15 )  ( <= ( + X15 7 ) X7 )  ( <= ( + Y7 4 ) Y15 )  ( <= ( + Y15 71 ) Y7 )  )
( or ( <= ( + X7 55 ) X16 )  ( <= ( + X16 81 ) X7 )  ( <= ( + Y7 4 ) Y16 )  ( <= ( + Y16 8 ) Y7 )  )
( or ( <= ( + X7 55 ) X17 )  ( <= ( + X17 95 ) X7 )  ( <= ( + Y7 4 ) Y17 )  ( <= ( + Y17 17 ) Y7 )  )
( or ( <= ( + X8 69 ) X9 )  ( <= ( + X9 30 ) X8 )  ( <= ( + Y8 89 ) Y9 )  ( <= ( + Y9 98 ) Y8 )  )
( or ( <= ( + X8 69 ) X10 )  ( <= ( + X10 12 ) X8 )  ( <= ( + Y8 89 ) Y10 )  ( <= ( + Y10 37 ) Y8 )  )
( or ( <= ( + X8 69 ) X11 )  ( <= ( + X11 70 ) X8 )  ( <= ( + Y8 89 ) Y11 )  ( <= ( + Y11 1 ) Y8 )  )
( or ( <= ( + X8 69 ) X12 )  ( <= ( + X12 78 ) X8 )  ( <= ( + Y8 89 ) Y12 )  ( <= ( + Y12 17 ) Y8 )  )
( or ( <= ( + X8 69 ) X13 )  ( <= ( + X13 60 ) X8 )  ( <= ( + Y8 89 ) Y13 )  ( <= ( + Y13 71 ) Y8 )  )
( or ( <= ( + X8 69 ) X14 )  ( <= ( + X14 4 ) X8 )  ( <= ( + Y8 89 ) Y14 )  ( <= ( + Y14 10 ) Y8 )  )
( or ( <= ( + X8 69 ) X15 )  ( <= ( + X15 7 ) X8 )  ( <= ( + Y8 89 ) Y15 )  ( <= ( + Y15 71 ) Y8 )  )
( or ( <= ( + X8 69 ) X16 )  ( <= ( + X16 81 ) X8 )  ( <= ( + Y8 89 ) Y16 )  ( <= ( + Y16 8 ) Y8 )  )
( or ( <= ( + X8 69 ) X17 )  ( <= ( + X17 95 ) X8 )  ( <= ( + Y8 89 ) Y17 )  ( <= ( + Y17 17 ) Y8 )  )
( or ( <= ( + X9 30 ) X10 )  ( <= ( + X10 12 ) X9 )  ( <= ( + Y9 98 ) Y10 )  ( <= ( + Y10 37 ) Y9 )  )
( or ( <= ( + X9 30 ) X11 )  ( <= ( + X11 70 ) X9 )  ( <= ( + Y9 98 ) Y11 )  ( <= ( + Y11 1 ) Y9 )  )
( or ( <= ( + X9 30 ) X12 )  ( <= ( + X12 78 ) X9 )  ( <= ( + Y9 98 ) Y12 )  ( <= ( + Y12 17 ) Y9 )  )
( or ( <= ( + X9 30 ) X13 )  ( <= ( + X13 60 ) X9 )  ( <= ( + Y9 98 ) Y13 )  ( <= ( + Y13 71 ) Y9 )  )
( or ( <= ( + X9 30 ) X14 )  ( <= ( + X14 4 ) X9 )  ( <= ( + Y9 98 ) Y14 )  ( <= ( + Y14 10 ) Y9 )  )
( or ( <= ( + X9 30 ) X15 )  ( <= ( + X15 7 ) X9 )  ( <= ( + Y9 98 ) Y15 )  ( <= ( + Y15 71 ) Y9 )  )
( or ( <= ( + X9 30 ) X16 )  ( <= ( + X16 81 ) X9 )  ( <= ( + Y9 98 ) Y16 )  ( <= ( + Y16 8 ) Y9 )  )
( or ( <= ( + X9 30 ) X17 )  ( <= ( + X17 95 ) X9 )  ( <= ( + Y9 98 ) Y17 )  ( <= ( + Y17 17 ) Y9 )  )
( or ( <= ( + X10 12 ) X11 )  ( <= ( + X11 70 ) X10 )  ( <= ( + Y10 37 ) Y11 )  ( <= ( + Y11 1 ) Y10 )  )
( or ( <= ( + X10 12 ) X12 )  ( <= ( + X12 78 ) X10 )  ( <= ( + Y10 37 ) Y12 )  ( <= ( + Y12 17 ) Y10 )  )
( or ( <= ( + X10 12 ) X13 )  ( <= ( + X13 60 ) X10 )  ( <= ( + Y10 37 ) Y13 )  ( <= ( + Y13 71 ) Y10 )  )
( or ( <= ( + X10 12 ) X14 )  ( <= ( + X14 4 ) X10 )  ( <= ( + Y10 37 ) Y14 )  ( <= ( + Y14 10 ) Y10 )  )
( or ( <= ( + X10 12 ) X15 )  ( <= ( + X15 7 ) X10 )  ( <= ( + Y10 37 ) Y15 )  ( <= ( + Y15 71 ) Y10 )  )
( or ( <= ( + X10 12 ) X16 )  ( <= ( + X16 81 ) X10 )  ( <= ( + Y10 37 ) Y16 )  ( <= ( + Y16 8 ) Y10 )  )
( or ( <= ( + X10 12 ) X17 )  ( <= ( + X17 95 ) X10 )  ( <= ( + Y10 37 ) Y17 )  ( <= ( + Y17 17 ) Y10 )  )
( or ( <= ( + X11 70 ) X12 )  ( <= ( + X12 78 ) X11 )  ( <= ( + Y11 1 ) Y12 )  ( <= ( + Y12 17 ) Y11 )  )
( or ( <= ( + X11 70 ) X13 )  ( <= ( + X13 60 ) X11 )  ( <= ( + Y11 1 ) Y13 )  ( <= ( + Y13 71 ) Y11 )  )
( or ( <= ( + X11 70 ) X14 )  ( <= ( + X14 4 ) X11 )  ( <= ( + Y11 1 ) Y14 )  ( <= ( + Y14 10 ) Y11 )  )
( or ( <= ( + X11 70 ) X15 )  ( <= ( + X15 7 ) X11 )  ( <= ( + Y11 1 ) Y15 )  ( <= ( + Y15 71 ) Y11 )  )
( or ( <= ( + X11 70 ) X16 )  ( <= ( + X16 81 ) X11 )  ( <= ( + Y11 1 ) Y16 )  ( <= ( + Y16 8 ) Y11 )  )
( or ( <= ( + X11 70 ) X17 )  ( <= ( + X17 95 ) X11 )  ( <= ( + Y11 1 ) Y17 )  ( <= ( + Y17 17 ) Y11 )  )
( or ( <= ( + X12 78 ) X13 )  ( <= ( + X13 60 ) X12 )  ( <= ( + Y12 17 ) Y13 )  ( <= ( + Y13 71 ) Y12 )  )
( or ( <= ( + X12 78 ) X14 )  ( <= ( + X14 4 ) X12 )  ( <= ( + Y12 17 ) Y14 )  ( <= ( + Y14 10 ) Y12 )  )
( or ( <= ( + X12 78 ) X15 )  ( <= ( + X15 7 ) X12 )  ( <= ( + Y12 17 ) Y15 )  ( <= ( + Y15 71 ) Y12 )  )
( or ( <= ( + X12 78 ) X16 )  ( <= ( + X16 81 ) X12 )  ( <= ( + Y12 17 ) Y16 )  ( <= ( + Y16 8 ) Y12 )  )
( or ( <= ( + X12 78 ) X17 )  ( <= ( + X17 95 ) X12 )  ( <= ( + Y12 17 ) Y17 )  ( <= ( + Y17 17 ) Y12 )  )
( or ( <= ( + X13 60 ) X14 )  ( <= ( + X14 4 ) X13 )  ( <= ( + Y13 71 ) Y14 )  ( <= ( + Y14 10 ) Y13 )  )
( or ( <= ( + X13 60 ) X15 )  ( <= ( + X15 7 ) X13 )  ( <= ( + Y13 71 ) Y15 )  ( <= ( + Y15 71 ) Y13 )  )
( or ( <= ( + X13 60 ) X16 )  ( <= ( + X16 81 ) X13 )  ( <= ( + Y13 71 ) Y16 )  ( <= ( + Y16 8 ) Y13 )  )
( or ( <= ( + X13 60 ) X17 )  ( <= ( + X17 95 ) X13 )  ( <= ( + Y13 71 ) Y17 )  ( <= ( + Y17 17 ) Y13 )  )
( or ( <= ( + X14 4 ) X15 )  ( <= ( + X15 7 ) X14 )  ( <= ( + Y14 10 ) Y15 )  ( <= ( + Y15 71 ) Y14 )  )
( or ( <= ( + X14 4 ) X16 )  ( <= ( + X16 81 ) X14 )  ( <= ( + Y14 10 ) Y16 )  ( <= ( + Y16 8 ) Y14 )  )
( or ( <= ( + X14 4 ) X17 )  ( <= ( + X17 95 ) X14 )  ( <= ( + Y14 10 ) Y17 )  ( <= ( + Y17 17 ) Y14 )  )
( or ( <= ( + X15 7 ) X16 )  ( <= ( + X16 81 ) X15 )  ( <= ( + Y15 71 ) Y16 )  ( <= ( + Y16 8 ) Y15 )  )
( or ( <= ( + X15 7 ) X17 )  ( <= ( + X17 95 ) X15 )  ( <= ( + Y15 71 ) Y17 )  ( <= ( + Y17 17 ) Y15 )  )
( or ( <= ( + X16 81 ) X17 )  ( <= ( + X17 95 ) X16 )  ( <= ( + Y16 8 ) Y17 )  ( <= ( + Y17 17 ) Y16 )  )
( >= X0 0)
( <= ( + X0 83) Z)
( >= Y0 0)
( <= ( + Y0 96 ) 100)
( >= X1 0)
( <= ( + X1 58) Z)
( >= Y1 0)
( <= ( + Y1 72 ) 100)
( >= X2 0)
( <= ( + X2 55) Z)
( >= Y2 0)
( <= ( + Y2 76 ) 100)
( >= X3 0)
( <= ( + X3 38) Z)
( >= Y3 0)
( <= ( + Y3 60 ) 100)
( >= X4 0)
( <= ( + X4 8) Z)
( >= Y4 0)
( <= ( + Y4 12 ) 100)
( >= X5 0)
( <= ( + X5 44) Z)
( >= Y5 0)
( <= ( + Y5 46 ) 100)
( >= X6 0)
( <= ( + X6 80) Z)
( >= Y6 0)
( <= ( + Y6 28 ) 100)
( >= X7 0)
( <= ( + X7 55) Z)
( >= Y7 0)
( <= ( + Y7 4 ) 100)
( >= X8 0)
( <= ( + X8 69) Z)
( >= Y8 0)
( <= ( + Y8 89 ) 100)
( >= X9 0)
( <= ( + X9 30) Z)
( >= Y9 0)
( <= ( + Y9 98 ) 100)
( >= X10 0)
( <= ( + X10 12) Z)
( >= Y10 0)
( <= ( + Y10 37 ) 100)
( >= X11 0)
( <= ( + X11 70) Z)
( >= Y11 0)
( <= ( + Y11 1 ) 100)
( >= X12 0)
( <= ( + X12 78) Z)
( >= Y12 0)
( <= ( + Y12 17 ) 100)
( >= X13 0)
( <= ( + X13 60) Z)
( >= Y13 0)
( <= ( + Y13 71 ) 100)
( >= X14 0)
( <= ( + X14 4) Z)
( >= Y14 0)
( <= ( + Y14 10 ) 100)
( >= X15 0)
( <= ( + X15 7) Z)
( >= Y15 0)
( <= ( + Y15 71 ) 100)
( >= X16 0)
( <= ( + X16 81) Z)
( >= Y16 0)
( <= ( + Y16 8 ) 100)
( >= X17 0)
( <= ( + X17 95) Z)
( >= Y17 0)
( <= ( + Y17 17 ) 100)
) )
)(=> $phi $goal))))